(set-logic QF_S)
(declare-fun var0 () String)
(assert (str.in.re var0 (re.++ (re.+ (re.+ (str.to.re "00"))) (re.++ (re.union (re.* (str.to.re "11")) (re.* (str.to.re "2"))) (re.++ (re.* (re.+ (str.to.re "3"))) (re.++ (re.* (re.* (str.to.re "44"))) (re.++ (re.* (re.* (str.to.re "5"))) (re.++ (re.* (re.+ (str.to.re "666"))) (re.++ (re.* (re.* (str.to.re "7"))) (re.++ (re.* (re.union (str.to.re "888") (str.to.re "99"))) (re.++ (re.+ (re.+ (str.to.re "aa"))) (re.++ (re.+ (re.+ (str.to.re "bbb"))) (re.++ (re.union (re.union (str.to.re "c") (str.to.re "dd")) (re.union (str.to.re "e") (str.to.re "fff"))) (re.++ (re.union (re.union (str.to.re "ggg") (str.to.re "h")) (re.union (str.to.re "ii") (str.to.re "j"))) (re.++ (re.* (re.+ (str.to.re "kkk"))) (re.++ (re.* (re.+ (str.to.re "l"))) (re.++ (re.+ (re.+ (str.to.re "mmm"))) (re.++ (re.+ (re.+ (str.to.re "nnn"))) (re.++ (re.union (re.+ (str.to.re "ooo")) (re.+ (str.to.re "pp"))) (re.++ (re.union (re.union (str.to.re "q") (str.to.re "rr")) (re.union (str.to.re "sss") (str.to.re "t"))) (re.++ (re.* (re.* (str.to.re "uuu"))) (re.++ (re.* (re.+ (str.to.re "vv"))) (re.++ (re.union (re.union (str.to.re "ww") (str.to.re "xx")) (re.union (str.to.re "y") (str.to.re "zz"))) (re.++ (re.* (re.union (str.to.re "AA") (str.to.re "B"))) (re.++ (re.* (re.* (str.to.re "CC"))) (re.++ (re.* (re.* (str.to.re "DD"))) (re.++ (re.+ (re.union (str.to.re "E") (str.to.re "F"))) (re.++ (re.* (re.+ (str.to.re "G"))) (re.++ (re.union (re.union (str.to.re "HH") (str.to.re "II")) (re.union (str.to.re "J") (str.to.re "KK"))) (re.++ (re.+ (re.* (str.to.re "LL"))) (re.++ (re.* (re.+ (str.to.re "MMM"))) (re.++ (re.* (re.union (str.to.re "N") (str.to.re "O"))) (re.++ (re.* (re.union (str.to.re "P") (str.to.re "Q"))) (re.++ (re.union (re.+ (str.to.re "R")) (re.+ (str.to.re "SS"))) (re.++ (re.union (re.* (str.to.re "T")) (re.* (str.to.re "UU"))) (re.++ (re.union (re.* (str.to.re "VVV")) (re.* (str.to.re "WW"))) (re.++ (re.+ (re.union (str.to.re "XX") (str.to.re "YYY"))) (re.++ (re.union (re.* (str.to.re "Z")) (re.* (str.to.re "!!"))) (re.++ (re.* (re.* (str.to.re """"))) (re.++ (re.union (re.union (str.to.re "##") (str.to.re "$$")) (re.union (str.to.re "%%%") (str.to.re "&&"))) (re.++ (re.+ (re.* (str.to.re "'"))) (re.++ (re.+ (re.+ (str.to.re "((("))) (re.++ (re.* (re.* (str.to.re ")"))) (re.++ (re.union (re.+ (str.to.re "**")) (re.+ (str.to.re "++"))) (re.++ (re.union (re.+ (str.to.re ",,")) (re.+ (str.to.re "---"))) (re.++ (re.union (re.* (str.to.re "...")) (re.* (str.to.re "//"))) (re.++ (re.union (re.union (str.to.re ":::") (str.to.re ";;;")) (re.union (str.to.re "<<<") (str.to.re "=="))) (re.++ (re.+ (re.* (str.to.re ">>"))) (re.++ (re.* (re.+ (str.to.re "??"))) (re.++ (re.* (re.* (str.to.re "@"))) (re.++ (re.* (re.* (str.to.re "[[["))) (re.++ (re.* (re.+ (str.to.re "\\\\"))) (re.++ (re.union (re.* (str.to.re "]")) (re.* (str.to.re "^^^"))) (re.++ (re.* (re.union (str.to.re "_") (str.to.re "``"))) (re.++ (re.* (re.union (str.to.re "{") (str.to.re "|||"))) (re.++ (re.* (re.+ (str.to.re "}}"))) (re.++ (re.* (re.* (str.to.re "~~"))) (re.++ (re.* (re.union (str.to.re "000") (str.to.re "11"))) (re.++ (re.* (re.+ (str.to.re "2"))) (re.++ (re.* (re.* (str.to.re "333"))) (re.++ (re.union (re.union (str.to.re "444") (str.to.re "55")) (re.union (str.to.re "666") (str.to.re "77"))) (re.++ (re.union (re.+ (str.to.re "88")) (re.+ (str.to.re "9"))) (re.++ (re.+ (re.union (str.to.re "a") (str.to.re "bb"))) (re.++ (re.* (re.union (str.to.re "c") (str.to.re "dd"))) (re.++ (re.+ (re.+ (str.to.re "eee"))) (re.++ (re.union (re.* (str.to.re "fff")) (re.* (str.to.re "g"))) (re.++ (re.* (re.union (str.to.re "hh") (str.to.re "ii"))) (re.++ (re.* (re.union (str.to.re "jjj") (str.to.re "kkk"))) (re.++ (re.union (re.+ (str.to.re "ll")) (re.+ (str.to.re "mmm"))) (re.++ (re.* (re.+ (str.to.re "nn"))) (re.++ (re.+ (re.* (str.to.re "oo"))) (re.++ (re.+ (re.+ (str.to.re "pp"))) (re.++ (re.+ (re.union (str.to.re "qqq") (str.to.re "r"))) (re.++ (re.* (re.+ (str.to.re "ss"))) (re.++ (re.* (re.union (str.to.re "ttt") (str.to.re "uu"))) (re.++ (re.union (re.union (str.to.re "vv") (str.to.re "ww")) (re.union (str.to.re "xxx") (str.to.re "y"))) (re.++ (re.union (re.* (str.to.re "z")) (re.* (str.to.re "AAA"))) (re.++ (re.* (re.* (str.to.re "BB"))) (re.++ (re.union (re.+ (str.to.re "CC")) (re.+ (str.to.re "D"))) (re.++ (re.* (re.union (str.to.re "E") (str.to.re "F"))) (re.++ (re.union (re.+ (str.to.re "G")) (re.+ (str.to.re "H"))) (re.++ (re.* (re.union (str.to.re "III") (str.to.re "JJ"))) (re.++ (re.union (re.* (str.to.re "K")) (re.* (str.to.re "L"))) (re.++ (re.union (re.+ (str.to.re "M")) (re.+ (str.to.re "NNN"))) (re.++ (re.* (re.* (str.to.re "OO"))) (re.++ (re.* (re.union (str.to.re "PPP") (str.to.re "QQ"))) (re.++ (re.union (re.+ (str.to.re "R")) (re.+ (str.to.re "SS"))) (re.++ (re.+ (re.+ (str.to.re "T"))) (re.++ (re.+ (re.union (str.to.re "UUU") (str.to.re "V"))) (re.++ (re.* (re.union (str.to.re "WW") (str.to.re "X"))) (re.++ (re.union (re.union (str.to.re "Y") (str.to.re "ZZ")) (re.union (str.to.re "!!!") (str.to.re """"""""))) (re.++ (re.* (re.* (str.to.re "#"))) (re.++ (re.union (re.+ (str.to.re "$$")) (re.+ (str.to.re "%"))) (re.++ (re.union (re.* (str.to.re "&")) (re.* (str.to.re "'''"))) (re.++ (re.* (re.* (str.to.re "(("))) (re.++ (re.* (re.+ (str.to.re ")))"))) (re.++ (re.+ (re.* (str.to.re "*"))) (re.++ (re.+ (re.union (str.to.re "+") (str.to.re ",,"))) (re.++ (re.* (re.union (str.to.re "---") (str.to.re "."))) (re.++ (re.* (re.union (str.to.re "//") (str.to.re "::"))) (re.++ (re.* (re.union (str.to.re ";;") (str.to.re "<"))) (re.++ (re.+ (re.+ (str.to.re "="))) (re.++ (re.+ (re.+ (str.to.re ">"))) (re.++ (re.union (re.* (str.to.re "???")) (re.* (str.to.re "@@"))) (re.++ (re.union (re.union (str.to.re "[[") (str.to.re "\\")) (re.union (str.to.re "]") (str.to.re "^"))) (re.++ (re.+ (re.+ (str.to.re "_"))) (re.++ (re.+ (re.+ (str.to.re "```"))) (re.++ (re.+ (re.* (str.to.re "{{{"))) (re.++ (re.+ (re.+ (str.to.re "|"))) (re.++ (re.union (re.+ (str.to.re "}}}")) (re.+ (str.to.re "~~"))) (re.++ (re.+ (re.union (str.to.re "000") (str.to.re "11"))) (re.++ (re.+ (re.union (str.to.re "2") (str.to.re "33"))) (re.++ (re.+ (re.* (str.to.re "444"))) (re.++ (re.* (re.+ (str.to.re "55"))) (re.++ (re.* (re.union (str.to.re "6") (str.to.re "777"))) (re.++ (re.* (re.* (str.to.re "8"))) (re.++ (re.+ (re.+ (str.to.re "999"))) (re.++ (re.* (re.* (str.to.re "aaa"))) (re.++ (re.union (re.union (str.to.re "b") (str.to.re "c")) (re.union (str.to.re "ddd") (str.to.re "eee"))) (re.++ (re.+ (re.* (str.to.re "ff"))) (re.++ (re.+ (re.* (str.to.re "g"))) (re.++ (re.+ (re.+ (str.to.re "hhh"))) (re.++ (re.* (re.+ (str.to.re "iii"))) (re.++ (re.union (re.union (str.to.re "jjj") (str.to.re "k")) (re.union (str.to.re "l") (str.to.re "m"))) (re.++ (re.+ (re.union (str.to.re "n") (str.to.re "oo"))) (re.++ (re.union (re.+ (str.to.re "ppp")) (re.+ (str.to.re "q"))) (re.++ (re.union (re.union (str.to.re "r") (str.to.re "ss")) (re.union (str.to.re "tt") (str.to.re "uu"))) (re.++ (re.* (re.union (str.to.re "vv") (str.to.re "w"))) (re.++ (re.union (re.union (str.to.re "xxx") (str.to.re "yyy")) (re.union (str.to.re "z") (str.to.re "AA"))) (re.++ (re.+ (re.union (str.to.re "BB") (str.to.re "CC"))) (re.++ (re.+ (re.* (str.to.re "DD"))) (re.++ (re.+ (re.* (str.to.re "EE"))) (re.++ (re.union (re.+ (str.to.re "F")) (re.+ (str.to.re "G"))) (re.++ (re.* (re.union (str.to.re "H") (str.to.re "III"))) (re.++ (re.* (re.+ (str.to.re "J"))) (re.++ (re.union (re.+ (str.to.re "KKK")) (re.+ (str.to.re "LLL"))) (re.++ (re.union (re.union (str.to.re "M") (str.to.re "N")) (re.union (str.to.re "OO") (str.to.re "PPP"))) (re.++ (re.+ (re.+ (str.to.re "Q"))) (re.++ (re.* (re.+ (str.to.re "RRR"))) (re.++ (re.union (re.* (str.to.re "SSS")) (re.* (str.to.re "T"))) (re.++ (re.+ (re.* (str.to.re "U"))) (re.++ (re.+ (re.+ (str.to.re "VV"))) (re.+ (re.+ (str.to.re "WWW")))))))))))))))))))))))))))))))))))))))))))))))))))))))))))))))))))))))))))))))))))))))))))))))))))))))))))))))))))))))))))))))))))))))))))))))))
(check-sat)